-89.0 10.0 10.0 6.0 8.0 6.0 7.0 8.0 0.0 5.0 5.0 5.0 0.0 3.0 10.0 3.0 3.0 
10.0 -84.0 4.0 10.0 2.0 5.0 3.0 7.0 3.0 6.0 10.0 9.0 10.0 5.0 0.0 0.0 0.0 
10.0 4.0 -107.0 10.0 4.0 9.0 2.0 10.0 9.0 5.0 9.0 9.0 9.0 8.0 7.0 2.0 0.0 
6.0 10.0 10.0 -94.0 10.0 6.0 3.0 8.0 4.0 0.0 4.0 10.0 0.0 6.0 5.0 7.0 5.0 
8.0 2.0 4.0 10.0 -66.0 3.0 1.0 0.0 1.0 2.0 3.0 0.0 5.0 2.0 10.0 7.0 8.0 
6.0 5.0 9.0 6.0 3.0 -73.0 6.0 0.0 6.0 0.0 4.0 2.0 3.0 1.0 6.0 10.0 6.0 
7.0 3.0 2.0 3.0 1.0 6.0 -74.0 7.0 10.0 2.0 1.0 0.0 6.0 8.0 4.0 4.0 10.0 
8.0 7.0 10.0 8.0 0.0 0.0 7.0 -96.0 9.0 0.0 5.0 5.0 8.0 3.0 8.0 10.0 8.0 
0.0 3.0 9.0 4.0 1.0 6.0 10.0 9.0 -98.0 9.0 5.0 5.0 10.0 10.0 6.0 5.0 6.0 
5.0 6.0 5.0 0.0 2.0 0.0 2.0 0.0 9.0 -68.0 6.0 2.0 10.0 7.0 8.0 5.0 1.0 
5.0 10.0 9.0 4.0 3.0 4.0 1.0 5.0 5.0 6.0 -78.0 3.0 4.0 8.0 3.0 1.0 7.0 
5.0 9.0 9.0 10.0 0.0 2.0 0.0 5.0 5.0 2.0 3.0 -72.0 1.0 4.0 3.0 6.0 8.0 
0.0 10.0 9.0 0.0 5.0 3.0 6.0 8.0 10.0 10.0 4.0 1.0 -95.0 9.0 10.0 2.0 8.0 
3.0 5.0 8.0 6.0 2.0 1.0 8.0 3.0 10.0 7.0 8.0 4.0 9.0 -91.0 6.0 7.0 4.0 
10.0 0.0 7.0 5.0 10.0 6.0 4.0 8.0 6.0 8.0 3.0 3.0 10.0 6.0 -95.0 6.0 3.0 
3.0 0.0 2.0 7.0 7.0 10.0 4.0 10.0 5.0 5.0 1.0 6.0 2.0 7.0 6.0 -85.0 10.0 
3.0 0.0 0.0 5.0 8.0 6.0 10.0 8.0 6.0 1.0 7.0 8.0 8.0 4.0 3.0 10.0 -87.0 

